INPUT_PARAMETERS
#Parameters (1.General)
suffix			        autotest
calculation     	    md
dft_functional	        lda

nbands			        12
symmetry		        0
pseudo_dir		        ../../PP_ORB
orbital_dir		        ../../PP_ORB

#Parameters (2.Iteration)
ecutwfc			        50
scf_thr			        1e-6
scf_nmax			    50

#Parameters (3.Basis)
basis_type		        lcao
gamma_only		        0

#Parameters (4.Smearing)
smearing_method		    gaussian
smearing_sigma			0.02

#Parameters (5.Mixing)
mixing_type		        broyden
mixing_beta		        0.8
mixing_gg0              0.0

#Parameters (6.File)
deepks_out_labels       0 
deepks_scf              1
cal_force               1
cal_stress              1
deepks_model            ../Model_ProjOrb/model_lda_pbe_18.ptg

md_type                 nvt
md_nstep                1
md_dt                   1
md_tfirst               300
md_tfreq                0.025
md_tchain               1