ATOMIC_SPECIES
Si  28.0855 Si_ONCV_PBE-1.0.upf upf201

NUMERICAL_ORBITAL
Si_gga_6au_100Ry_2s2p1d.orb

NUMERICAL_DESCRIPTOR
../Model_ProjOrb/5au_100Ry_jle.orb

LATTICE_CONSTANT
1.8897261255

LATTICE_VECTORS
    2.7298099909        2.7298099909        0.0000000000
    0.0000000000        2.7298099909        2.7298099909
    2.7298099909        0.0000000000        2.7298099909

ATOMIC_POSITIONS
Direct

Si #label
0.0000   #magnetism
2 #number of atoms
    0.0000000000        0.0000000000        0.0000000000 m 0 0 0
    0.2500000000        0.2500000000        0.2500000000 m 1 1 1
