INPUT_PARAMETERS
suffix              autotest
calculation         scf

ecutwfc             50
scf_thr             1e-6
scf_nmax            35
pseudo_dir          ../../PP_ORB
orbital_dir         ../../PP_ORB
basis_type          lcao
dft_functional      lda
gamma_only          1
mixing_type         broyden
mixing_beta         0.8
smearing_method     gaussian
smearing_sigma      0.02

cal_force           0
cal_stress          0
deepks_scf          1
deepks_model        ../Model_ProjOrb/model_lda_pbe_18.ptg
deepks_out_labels   1
deepks_bandgap      2
deepks_band_range   -1 0
