INPUT_PARAMETERS
#Parameters (1.General)
suffix			    autotest
calculation     	scf

nbands			    6
symmetry		    0
pseudo_dir		    ../../PP_ORB
orbital_dir		    ../../PP_ORB

#Parameters (2.Iteration)
ecutwfc			    50
scf_thr			    5e-3 #relatively large to avoid many steps
scf_nmax            50

#Parameters (3.Basis)
basis_type		    lcao
gamma_only		    0

#Parameters (4.Smearing)
smearing_method		gaussian
smearing_sigma		0.02

#Parameters (5.Mixing)
mixing_type		    broyden
mixing_beta		    0.8
mixing_gg0          0

#Parameters (6.File)
deepks_out_labels   1 

deepks_v_delta      1
cal_force           1
cal_stress          1

deepks_out_freq_elec 1

dft_functional      pbe
deepks_out_base     lda
