ATOMIC_SPECIES
Si 1.00 Si_ONCV_PBE-1.2.upf
O 1.00 O_ONCV_PBE-1.2.upf


LATTICE_CONSTANT
1

LATTICE_VECTORS
15 0 0
0 15 0
0 0  9

ATOMIC_POSITIONS
Direct    # Cartesian(Unit is LATTICE_CONSTANT)

Si
0.0
1
0.5 0.5 0 0 0 0
O
0.0
2
0.5 0.5 0.25 0 0 0
0.5 0.5 0.75 0 0 0

NUMERICAL_ORBITAL
Si_gga_8au_60Ry_2s2p1d.orb
O_gga_7au_60Ry_2s2p1d.orb

NUMERICAL_DESCRIPTOR
../Model_ProjOrb/2au_20Ry_jle.orb
