INPUT_PARAMETERS
#Parameters	(General)
suffix          autotest
	
nbands			8
calculation     relax
ecutwfc			10
scf_nmax		20

basis_type		pw
relax_nmax      4

cal_stress      1
stress_thr      1e-6
cal_force       1
force_thr_ev    1.0e-3

ks_solver       cg 
mixing_type     broyden
mixing_beta     0.7

relax_new       0
relax_method    lbfgs 

pseudo_dir      ../../../tests/PP_ORB	
orbital_dir	    ../../../tests/PP_ORB

nspin           4

out_freq_ion    1
#out_freq_elec   0 

out_chg         1  # chg.txt g
out_pot         1  # pot.txt g
out_wfc_pw      1  # wfkx_pw.txt g
out_dos         1  # dos.txt g
out_elf         1  # elf.txt
out_band        1  # eig.txt
out_stru        1  # g

out_app_flag    0

kpar            1
symmetry        -1


