INPUT_PARAMETERS
#Parameters	(General)
suffix          autotest
	
nbands			8
calculation     relax
ecutwfc			10
scf_nmax		20

basis_type		pw
relax_nmax      5

cal_stress      1
stress_thr      1e-6
cal_force       1
force_thr_ev    1.0e-3

ks_solver       cg 
mixing_type     broyden
mixing_beta     0.7

relax_new       0
relax_method    lbfgs 

pseudo_dir      ../../../tests/PP_ORB	
orbital_dir	    ../../../tests/PP_ORB

nspin           2

out_chg         1
out_pot         1
out_wfc_pw      1
out_dos         1
out_stru        1
out_app_flag    0

out_interval    1
kpar            2
symmetry        -1

#out_freq_elec   2
#out_band        1
