INPUT_PARAMETERS 
#Parameters (General)
suffix            autotest
pseudo_dir        ../../PP_ORB
orbital_dir       ../../PP_ORB

nbands            5
calculation       md
esolver_type      tddft
basis_type        lcao
gamma_only        0
ecutwfc           20

#Parameter (Electronic Structure)
scf_nmax          50

ks_solver         scalapack_gvx

mixing_type       broyden
mixing_beta       0.7
mixing_gg0        0.0
scf_thr           1.0e-6

cal_stress        1
stress_thr        1e-6
cal_force         1
force_thr_ev      1.0e-3

#Parameter (MD)
md_type           nve
md_nstep          3
estep_per_md      1
md_dt             0.05
init_vel          1

td_vext           1
td_vext_dire      1
td_stype          0
td_ttype          3
td_tstart         1
td_tend           2
td_lcut1          0.05
td_lcut2          0.95
td_heavi_t0       100
td_heavi_amp      1.0
