INPUT_PARAMETERS
#Parameters (General)
suffix       autotest
pseudo_dir   ../../PP_ORB
calculation  cell-relax
basis_type   pw
nspin        2
nbands       8

#Parameters (Accuracy)
ecutwfc      20
scf_nmax     20
kpar         2

relax_method cg
relax_nmax   2
relax_new    0

cal_stress   1
stress_thr   0.1
cal_force    1
force_thr_ev 0.001 

mixing_type  broyden
mixing_beta  0.7
mixing_gg0   1.5
