ATOMIC_SPECIES
Si 28 Si_dojo_nsoc.upf 

NUMERICAL_ORBITAL
Si_dojo_6au_sz.orb
 
LATTICE_CONSTANT
10.2

LATTICE_VECTORS
0.0 0.5 0.5
0.5 0.0 0.5
0.5 0.5 0.0

ATOMIC_POSITIONS
Direct 

Si
0.0
2	
0.00 0.00 0.00 1 1 1
0.251 0.251 0.251 1 1 1
