ATOMIC_SPECIES
Si 14 Si_dojo_soc.upf 

NUMERICAL_ORBITAL
Si_dojo_6au_sz.orb

LATTICE_CONSTANT
20  // add lattice constant

LATTICE_VECTORS
0.0 0.5 0.5
0.5 0.0 0.5
0.5 0.5 0.0

ATOMIC_POSITIONS
Direct 

Si	// Element type	
0.0	// magnetism
2	
0.000000000000000 0.020000000000000 0.000000000000000 1 1 1
0.250000000000000 0.260000000000000 0.270000000000000 1 1 1
