INPUT_PARAMETERS

calculation     scf
basis_type		lcao 	
out_wfc_lcao    1

symmetry        0

nbands			4
latname			sc
ecutwfc			25.0 
scf_thr			1e-10


suffix        autotest
stru_file     STRU
kpoint_file   KPT
pseudo_dir	  ../../PP_ORB
orbital_dir	  ../../PP_ORB
