ATOMIC_SPECIES
H 1.008 H_ONCV_PBE-1.0.upf
O 15.9994 O_ONCV_PBE-1.0.upf

NUMERICAL_ORBITAL
H_gga_6au_60Ry_1s.orb
O_gga_6au_60Ry_1s1p.orb

LATTICE_CONSTANT
1

LATTICE_VECTORS
6 0 0
0 6 0
0 0  6

ATOMIC_POSITIONS
Cartesian

H
0
2
0.00 0.00 0.00 0 0 0
0.01 0.02 1.97 0 0 0
O
0
1
0.03 0.04 1.00 0 0 0
