INPUT_PARAMETERS
suffix            autotest
pseudo_dir        ../../PP_ORB
orbital_dir       ../../PP_ORB
calculation       scf
ntype             2
nbands            6
symmetry          -1
nspin             1
gamma_only        1
ecutwfc           10
scf_thr           1e-7
scf_nmax          30
basis_type        lcao
ks_solver         genelpa
smearing_method   gaussian
smearing_sigma    0.02
mixing_type       pulay
mixing_beta       0.4
mixing_gg0        0
dft_functional    pbe
rpa               1
exx_real_number   1
exx_separate_loop 1
exx_pca_threshold 1e-2
exx_singularity_correction massidda
exx_ccp_rmesh_times 1
rpa_ccp_rmesh_times 1
