INPUT_PARAMETERS
#Parameters (1.General)
suffix		autotest
calculation     scf

nbands		8
symmetry	1
pseudo_dir	../../PP_ORB
orbital_dir	../../PP_ORB

#Parameters (2.Iteration)
ecutwfc		10
scf_thr		1e-8
scf_nmax	10

#Parameters (3.Basis)
basis_type	lcao

#Parameters (4.Smearing)
smearing_method	gauss
smearing_sigma	0.002

# output dmr, dmk
out_dmr 1 5
out_dmk 1 3
