INPUT_PARAMETERS
suffix	    autotest
pseudo_dir	../../PP_ORB
orbital_dir	../../PP_ORB

gamma_only          0

calculation         scf
symmetry            0

ecutwfc             5
scf_thr             1e-6
scf_nmax            100

#Parameters (LCAO)
basis_type          lcao
ks_solver           scalapack_gvx
out_chg             2  5 // 2 outputs the initial charge density
out_pot             1  5

cal_force 1
cal_stress 1
