INPUT_PARAMETERS
#Parameters	(General)
suffix               autotest
nbands               8
calculation          md
basis_type           lcao
gamma_only           1
nspin                2
out_mat_hs           1 5

#Parameters (Accuracy)
ecutwfc              5
scf_nmax             50
scf_thr              1.0e-8

cal_stress           1
stress_thr           1e-6
cal_force            1
force_thr_ev         1.0e-3

mixing_type          broyden
mixing_beta          0.7

md_nstep             2
md_tchain            4
md_tfirst            10
md_tfreq             0.1
init_vel             1

chg_extrap           first-order

pseudo_dir           ../../PP_ORB
orbital_dir          ../../PP_ORB
