INPUT_PARAMETERS
calculation       scf
suffix            autotest
pseudo_dir        ../../PP_ORB
orbital_dir       ../../PP_ORB
basis_type            lcao
gamma_only            1

ecutwfc               8

scf_thr               1e-7

device                cpu
