ATOMIC_SPECIES
H   1.008         H.pz-vbc.UPF
C   12.011        C.pz-vbc.UPF

NUMERICAL_ORBITAL
H_gga_8au_100Ry_2s1p.orb
C_gga_8au_100Ry_2s2p1d.orb

LATTICE_CONSTANT
1.889726

LATTICE_VECTORS
12.940005000      0.0000000000      0.0000000000      
0.0000000000      12.940005000      0.0000000000      
0.0000000000      0.0000000000      10.352004000      

ATOMIC_POSITIONS
Direct

H
0.0000000000
6
0.3075730000 0.3863990000 0.3380990000 0 0 0 mag 0.0 
0.4037870000 0.5530450000 0.3380990000 0 0 0 mag 0.0 
0.4037870000 0.2197520000 0.3380990000 0 0 0 mag 0.0 
0.5962130000 0.5530450000 0.3380990000 0 0 0 mag 0.0 
0.5962130000 0.2197520000 0.3380990000 0 0 0 mag 0.0 
0.6924260000 0.3863990000 0.3380990000 0 0 0 mag 0.0 

C
0.0000000000
6
0.3925810000 0.3863990000 0.3380990000 0 0 0 mag 0.0 
0.4462900000 0.4794260000 0.3380990000 0 0 0 mag 0.0 
0.4462900000 0.2933710000 0.3380990000 0 0 0 mag 0.0 
0.5537090000 0.4794260000 0.3380990000 0 0 0 mag 0.0 
0.5537090000 0.2933710000 0.3380990000 0 0 0 mag 0.0 
0.6074190000 0.3863990000 0.3380990000 0 0 0 mag 0.0 
