INPUT_PARAMETERS

# General paramters
basis_type  lcao
nspin       2
gamma_only  1
symmetry    1
nbands      24
ocp         1
ocp_set     17*1 7*0 15*1 9*0

# SCF parameters
calculation scf
ecutwfc     5
scf_thr     1e-9
scf_nmax    100

# Smearing
smearing_method  gauss
smearing_sigma   0.002

# Charge mixing
mixing_type  broyden
mixing_beta  0.4
mixing_ndim  15
mixing_gg0   1.5

# Directories
suffix      autotest
pseudo_dir  ../../PP_ORB
orbital_dir ../../PP_ORB
