INPUT_PARAMETERS

calculation    scf
ecutwfc        8
scf_thr        1.0e-8
scf_nmax       50
#out_chg        1

smearing_method  gaussian
smearing_sigma   0.02

mixing_type    broyden
mixing_beta    0.4
mixing_gg0     0.0

ks_solver     scalapack_gvx
basis_type    lcao
gamma_only    1
symmetry      0
nspin         2

suffix        autotest
pseudo_dir	  ../../PP_ORB
orbital_dir	  ../../PP_ORB
