INPUT_PARAMETERS
#Parameters (1.General)
suffix			    autotest
calculation     	nscf
dft_functional		pbe

nbands			    6
symmetry		    0
pseudo_dir		    ../../PP_ORB
orbital_dir		    ../../PP_ORB
read_file_dir       ./

#Parameters (2.Iteration)
ecutwfc			    20
scf_thr			    1e-7
scf_nmax		    50

#Parameters (3.Basis)
basis_type		    lcao
gamma_only		    1

#Parameters (4.Smearing)
smearing_method		gaussian
smearing_sigma		0.02

#Parameters (5.Mixing)
mixing_type		    broyden
mixing_beta		    0.4

cal_force           1
cal_stress          1
deepks_scf	        1
deepks_out_labels	0
deepks_model	    ../Model_ProjOrb/model_lda_pbe_18.ptg

init_chg            file
out_dos             1
