ATOMIC_SPECIES
H 1.008  H_ONCV_PBE2PZ-1.0.upf
O 15.9994 O_ONCV_PBE2PZ-1.0.upf

NUMERICAL_ORBITAL
H_gga_6au_60Ry_2s1p.orb
O_gga_6au_60Ry_2s2p1d.orb

LATTICE_CONSTANT
1

LATTICE_VECTORS
15 0 0
0 15 0
0 0 15

ATOMIC_POSITIONS
Cartesian

H
0
2
-6.040765725658291 8.231684265856187 5.152143939483946 1 1 1
-6.028090239561918 9.627040228497610 5.005277305607022 1 1 1
O
0
1
-6.596502312337050 8.955662153567580 5.220144551501763 1 1 1
