INPUT_PARAMETERS
#Parameters (1.General)
suffix              autotest
calculation         scf

nbands              6
symmetry            0
pseudo_dir          ../../PP_ORB

device              gpu

#Parameters (2.Iteration)
ecutwfc             100
scf_thr             1e-9
scf_nmax            100

#Parameters (3.Basis)
basis_type          pw

out_wfc_norm        1*1

pw_seed             1
