INPUT_PARAMETERS

# pw scf non-collinear calculations
basis_type    pw
calculation   scf
noncolin      1
symmetry      0
cal_force     1
cal_stress    1

# plane wave and scf
ecutwfc       20
pw_seed       1
scf_thr       1.0e-7
scf_nmax      50
out_chg       0

# smearing method
smearing_method    gaussian
smearing_sigma       0.02

# charge mixing method
mixing_type    broyden 
mixing_beta    0.2
mixing_ndim 10

# diagonalizaiton
ks_solver          dav_subspace
diago_smooth_ethr  true
pw_diag_ndim       2

# directories
pseudo_dir    ../../PP_ORB
orbital_dir   ../../PP_ORB
suffix        autotest
