INPUT_PARAMETERS
# Directories
suffix           autotest
pseudo_dir       ../../PP_ORB

# Relaxation Method
calculation      relax
relax_nmax       2
cal_force        1
force_thr_ev     0.01
relax_method     bfgs
relax_new        0

# Self-Consistent Field
basis_type       pw
nbands           8
symmetry         1
pw_seed          1
ecutwfc          20
scf_thr          1e-9
scf_nmax         100

# Smearing Method
smearing_method  gauss
smearing_sigma   0.002

# Charge Mixing Method
mixing_type      broyden
mixing_beta      0.5
