INPUT_PARAMETERS
calculation         scf
suffix              autotest

ecutwfc             50
scf_thr             1e-06
scf_nmax            35
pseudo_dir          ../../PP_ORB
orbital_dir         ../../PP_ORB
basis_type          lcao
dft_functional      lda
gamma_only          0
mixing_type         broyden
mixing_beta         0.8
smearing_method     gaussian
smearing_sigma      0.02

cal_force           1
cal_stress          1
deepks_out_labels   0
deepks_scf          1
deepks_model        ../Model_ProjOrb/model_lda_pbe_18.ptg

