ATOMIC_SPECIES
H 1.008 H_ONCV_PBE-1.0.upf
O 15.9994 O_ONCV_PBE-1.0.upf

NUMERICAL_ORBITAL
H_gga_6au_60Ry_1s.orb
O_gga_6au_60Ry_1s1p.orb

LATTICE_CONSTANT
1

LATTICE_VECTORS
10 0 0
0  8 0
0  0 12

ATOMIC_POSITIONS
Cartesian    # Cartesian(Unit is LATTICE_CONSTANT)

H
0.0
2
0.00 0.00 0.00 0 0 0
0.00 0.00 2.00 0 0 0

O
0.0
1
0.00 0.00 1.00 0 0 0
