INPUT_PARAMETERS
pseudo_dir              ../../../tests/PP_ORB
orbital_dir             ../../../tests/PP_ORB
nbands                  4
nspin                   1
calculation             scf
basis_type              pw
ks_solver               dav
ecutwfc                 50
scf_thr                 1e-9
scf_nmax                100
gamma_only              0
symmetry                -1
smearing_method         fixed
mixing_type             broyden
mixing_beta             0.7

dft_functional          hse

# init_wfc file
# init_chg file

pseudo_mesh            1
pseudo_rcut            10

# out_wfc_pw 1
# out_chg 1

exx_hybrid_alpha        0.25

cal_stress 1
# cal_force 1
