INPUT_PARAMETERS

calculation     scf
basis_type		lcao 	
gamma_only		1
out_wfc_lcao	1

nbands			4
latname			sc
ecutwfc			25.0   # Rydberg
scf_thr			1e-10

suffix          autotest
pseudo_dir	    ../../PP_ORB
orbital_dir	    ../../PP_ORB
stru_file		STRU
kpoint_file		KPT
