INPUT_PARAMETERS
#Parameters (System)
suffix                          autotest
calculation                     scf
nspin                           2
pseudo_dir                      ../../PP_ORB
orbital_dir                     ../../PP_ORB

#Parameters (PW)
ecutwfc                         30
basis_type                      pw

#Parameters (SCF)
scf_thr                         1.0e-7
scf_nmax                        100
smearing_method                 gaussian
smearing_sigma                  0.015
mixing_type                     pulay
mixing_ndim                     8
mixing_beta                     0.2

#Parameters (Hybrid Functional)
dft_functional                  pbe0

#Parameters (Other)
symmetry                        -1
init_wfc                        random
pw_seed                         1
device                          cpu
exx_thr_type                    energy
exx_ene_thr                     5e-2