ATOMIC_SPECIES
Fe 55.845 Fe_ONCV_PBE-1.0.upf


LATTICE_CONSTANT
1.889725989

LATTICE_VECTORS
    2.8328152400000000    0.0000000000000000    0.0000000000000000
    0.0000000000000000    2.8328152400000000    0.0000000000000000
    0.0000000000000000    0.0000000000000000    2.8328152400000000
ATOMIC_POSITIONS
Direct

Fe
1.0
2
0.0 0.0 0.0    mag 5
0.5 0.5 0.5    mag -5
