INPUT_PARAMETERS 
suffix            autotest
pseudo_dir        ../../PP_ORB
orbital_dir       ../../PP_ORB

gamma_only        0

calculation       scf
symmetry          0

smearing_method   gaussian
smearing_sigma    0.001

ecutwfc           5
scf_thr           1e-8
scf_nmax          100

#Parameters (LCAO)
basis_type        lcao
ks_solver         scalapack_gvx
#out_dmr             1
init_chg          dm
read_file_dir     ./

cal_force         1
cal_stress        1
force_thr_ev      0.001
