INPUT_PARAMETERS

# general information
calculation        md
esolver_type       tddft
md_type            nve
md_nstep           2
estep_per_md       1 
md_dt              0.05
md_tfirst          0

# rt-TDDFT parameters
td_vext            1  # add time-dependent external potential
td_vext_dire       3  # direction along z
td_stype           1  # 1: velocity gauge
td_ttype           0  # Gaussian type potential
td_tstart          1  # the step electric field starts
td_tend            2  # the step electric field ends
td_gauss_freq      0.32
td_gauss_phase     0.0
td_gauss_sigma     0.5
td_gauss_t0        1
td_gauss_amp       0.01

# print out current information
out_current        1

suffix             autotest
pseudo_dir         ../../PP_ORB
orbital_dir        ../../PP_ORB
basis_type         lcao
gamma_only         0

# electronic structure calculations
ecutwfc            20
scf_nmax           50
scf_thr            1e-6
ks_solver          scalapack_gvx

# charge mixing
mixing_type        broyden
mixing_beta        0.7
mixing_gg0         0.0
