INPUT_PARAMETERS
#Parameters	(General)
suffix          autotest
	
nbands			8
calculation     relax #cell-relax
ecutwfc			10
scf_nmax		20

basis_type		lcao
relax_nmax      1

cal_stress      1
stress_thr      1e-6
cal_force       1
force_thr_ev    1.0e-3

ks_solver       scalapack_gvx
mixing_type     broyden
mixing_beta     0.7

relax_new       0
relax_method    bfgs

pseudo_dir      ../../../tests/PP_ORB	
orbital_dir	    ../../../tests/PP_ORB

nspin           1

out_mat_hs      0 // note 
out_mat_tk      1 // note
out_mat_l       1 // note
out_chg         0 8 // note 
out_pot         0
out_dmk         0 // note 
out_dmr         0 // note
#out_wfc_lcao    1   // OK
out_dos         0
out_band        0
out_stru        0
out_app_flag    0

