ATOMIC_SPECIES
O 1.00 ../../PP_ORB/O_ONCV_PBE-1.0.upf
H 1.00 ../../PP_ORB/H_ONCV_PBE-1.0.upf

LATTICE_CONSTANT
1

LATTICE_VECTORS
10 0 0 
0 10 0 
0 0 10 

ATOMIC_POSITIONS
Direct    # Cartesian(Unit is LATTICE_CONSTANT)

O
0.0
1
-0.3230414703476 0.08341764682815 0.125126470242225 1 1 1
H
0.0
2
-0.10349451100655 0.2561729216652 0.87770626909185 1 1 1
-0.2473714095935 -0.0346105497687 0.63538026574395 1 1 1

NUMERICAL_ORBITAL
../../PP_ORB/O_gga_6au_60Ry_1s1p.orb
../../PP_ORB/H_gga_6au_60Ry_1s.orb

NUMERICAL_DESCRIPTOR
jle.orb
