INPUT_PARAMETERS

# general
calculation     md
md_nstep        2
basis_type      lcao
gamma_only      1
nbands          8

# scf
ecutwfc     20
scf_nmax    20
scf_thr     1E-7

# solver
ks_solver       genelpa
mixing_type     broyden
mixing_beta     0.7

# force and stress
cal_force       1
force_thr_ev    1.0e-3
cal_stress      1
stress_thr      1e-6

# md parameters
md_type          nvt
md_tchain        4
md_tfirst        10
md_dt            1
md_restart       0

# input and output
init_vel         1
out_wfc_lcao     1
out_app_flag     1

# directories
suffix          autotest
read_file_dir   ./
pseudo_dir      ../../PP_ORB
orbital_dir     ../../PP_ORB
