ATOMIC_SPECIES
Si 14 Si_dojo_nsoc.upf 

NUMERICAL_ORBITAL
Si_dojo_6au_sz.orb

LATTICE_CONSTANT
10.2

LATTICE_VECTORS
0 0.5 0.5 #latvec1
0.5 0 0.5 #latvec2
0.5 0.5 0 #latvec3

ATOMIC_POSITIONS
Cartesian

Si #label
0 #magnetism
2 #number of atoms
0  0  0  m  1  1  1  v  7.84179508201e-05  0.000114236741577  8.28212578036e-05
0.241  0.255  0.250999999999  m  1  1  1  v  -7.84179508201e-05  -0.000114236741577  -8.28212578036e-05
