INPUT_PARAMETERS 
#Parameters (General)
suffix            autotest
pseudo_dir        ../../PP_ORB
orbital_dir       ../../PP_ORB

calculation       md
esolver_type      tddft
basis_type        lcao
gamma_only        0
nbands            10
ecutwfc           20

#Parameter (Electronic Structure)
scf_nmax          50

ks_solver         scalapack_gvx

mixing_type       broyden
mixing_beta       0.7
mixing_gg0        0.0
scf_thr           1.0e-6

cal_stress        1
stress_thr        1e-6
cal_force         1
force_thr_ev      1.0e-3

#Paramter (MD)
md_type           nve
md_nstep          3
estep_per_md      1
md_dt             0.05
init_vel          1
ocp               1
ocp_set           4*2 2*1 4*0
