INPUT_PARAMETERS
calculation         scf
suffix              autotest
pseudo_dir          ../../PP_ORB
orbital_dir         ../../PP_ORB

ecutwfc             50
scf_thr             1e-06
scf_nmax            35
basis_type          lcao
dft_functional      lda
gamma_only          0
mixing_type         broyden
mixing_beta         0.8
smearing_method     gaussian
smearing_sigma      0.02

cal_force           0
cal_stress          0
deepks_scf          1
deepks_out_labels   1
deepks_bandgap      3
deepks_band_range   -1 0
deepks_model        ../Model_ProjOrb/model_lda_pbe_18.ptg
symmetry_prec       1e-5
