ATOMIC_SPECIES
C   12.011  C.LDA.UPF

NUMERICAL_ORBITAL
C_gga_8au_100Ry_2s2p1d.orb

LATTICE_CONSTANT
1.889726

LATTICE_VECTORS
    1.5000000000     0.0000000000    0.0000000000 #latvec1
    0.0000000000     1.5000000000    0.0000000000 #latvec2
    0.0000000000     0.0000000000    1.5000000000 #latvec3

ATOMIC_POSITIONS
Direct

C #label
0.0000   #magnetism
1 #number of atoms
        0.0000000000        0.0000000000        0.0000000000 m 0 0 0 
